p cnf 410 924
1 0
2 0
3 0
4 0
5 0
6 0
7 0
8 0
9 0
10 0
-11 0
-12 0
-13 0
-14 0
-15 0
-16 0
-17 0
-18 0
-19 0
-20 0
1 -21 0
-1 21 0
2 -22 0
-2 22 0
3 -23 0
-3 23 0
4 -24 0
-4 24 0
5 -25 0
-5 25 0
6 -26 0
-6 26 0
7 -27 0
-7 27 0
8 -28 0
-8 28 0
9 -29 0
-9 29 0
10 -30 0
-10 30 0
31 32 0
33 32 0
-31 -33 -32 0
-11 32 -34 0
11 -32 -34 0
34 -32 -11 0
11 32 34 0
-34 0
35 36 0
37 36 0
-35 -37 -36 0
-31 36 -38 0
31 -36 -38 0
38 -36 -31 0
31 36 38 0
-38 0
39 40 0
41 40 0
-39 -41 -40 0
-35 40 -42 0
35 -40 -42 0
42 -40 -35 0
35 40 42 0
-42 0
43 44 0
45 44 0
-43 -45 -44 0
-39 44 -46 0
39 -44 -46 0
46 -44 -39 0
39 44 46 0
-46 0
47 48 0
49 48 0
-47 -49 -48 0
-43 48 -50 0
43 -48 -50 0
50 -48 -43 0
43 48 50 0
-50 0
51 52 0
53 52 0
-51 -53 -52 0
-47 52 -54 0
47 -52 -54 0
54 -52 -47 0
47 52 54 0
-54 0
55 56 0
57 56 0
-55 -57 -56 0
-51 56 -58 0
51 -56 -58 0
58 -56 -51 0
51 56 58 0
-58 0
59 60 0
61 60 0
-59 -61 -60 0
-55 60 -62 0
55 -60 -62 0
62 -60 -55 0
55 60 62 0
-62 0
49 63 0
53 63 0
57 63 0
61 63 0
64 63 0
-65 0
-59 63 -66 0
59 -63 -66 0
66 -63 -59 0
59 63 66 0
-66 0
67 68 0
69 68 0
-67 -69 -68 0
-12 68 -70 0
12 -68 -70 0
70 -68 -12 0
12 68 70 0
-70 0
71 72 0
73 72 0
-71 -73 -72 0
-67 72 -74 0
67 -72 -74 0
74 -72 -67 0
67 72 74 0
-74 0
75 76 0
77 76 0
-75 -77 -76 0
-71 76 -78 0
71 -76 -78 0
78 -76 -71 0
71 76 78 0
-78 0
79 80 0
81 80 0
-79 -81 -80 0
-75 80 -82 0
75 -80 -82 0
82 -80 -75 0
75 80 82 0
-82 0
83 84 0
85 84 0
-83 -85 -84 0
-79 84 -86 0
79 -84 -86 0
86 -84 -79 0
79 84 86 0
-86 0
87 88 0
89 88 0
-87 -89 -88 0
-83 88 -90 0
83 -88 -90 0
90 -88 -83 0
83 88 90 0
-90 0
91 92 0
93 92 0
-91 -93 -92 0
-87 92 -94 0
87 -92 -94 0
94 -92 -87 0
87 92 94 0
-94 0
95 96 0
97 96 0
-95 -97 -96 0
-91 96 -98 0
91 -96 -98 0
98 -96 -91 0
91 96 98 0
-98 0
99 100 0
101 100 0
-99 -101 -100 0
-95 100 -102 0
95 -100 -102 0
102 -100 -95 0
95 100 102 0
-102 0
93 103 0
97 103 0
101 103 0
104 103 0
-105 0
-99 103 -106 0
99 -103 -106 0
106 -103 -99 0
99 103 106 0
-106 0
107 108 0
109 108 0
-107 -109 -108 0
-13 108 -110 0
13 -108 -110 0
110 -108 -13 0
13 108 110 0
-110 0
111 112 0
113 112 0
-111 -113 -112 0
-107 112 -114 0
107 -112 -114 0
114 -112 -107 0
107 112 114 0
-114 0
115 116 0
117 116 0
-115 -117 -116 0
-111 116 -118 0
111 -116 -118 0
118 -116 -111 0
111 116 118 0
-118 0
119 120 0
121 120 0
-119 -121 -120 0
-115 120 -122 0
115 -120 -122 0
122 -120 -115 0
115 120 122 0
-122 0
123 124 0
125 124 0
-123 -125 -124 0
-119 124 -126 0
119 -124 -126 0
126 -124 -119 0
119 124 126 0
-126 0
127 128 0
129 128 0
-127 -129 -128 0
-123 128 -130 0
123 -128 -130 0
130 -128 -123 0
123 128 130 0
-130 0
131 132 0
133 132 0
-131 -133 -132 0
-127 132 -134 0
127 -132 -134 0
134 -132 -127 0
127 132 134 0
-134 0
135 136 0
137 136 0
-135 -137 -136 0
-131 136 -138 0
131 -136 -138 0
138 -136 -131 0
131 136 138 0
-138 0
139 140 0
141 140 0
-139 -141 -140 0
-135 140 -142 0
135 -140 -142 0
142 -140 -135 0
135 140 142 0
-142 0
143 144 0
145 144 0
-143 -145 -144 0
-139 144 -146 0
139 -144 -146 0
146 -144 -139 0
139 144 146 0
-146 0
145 147 0
148 147 0
129 147 0
133 147 0
137 147 0
141 147 0
-149 0
-143 147 -150 0
143 -147 -150 0
150 -147 -143 0
143 147 150 0
-150 0
151 152 0
153 152 0
-151 -153 -152 0
-14 152 -154 0
14 -152 -154 0
154 -152 -14 0
14 152 154 0
-154 0
155 156 0
157 156 0
-155 -157 -156 0
-151 156 -158 0
151 -156 -158 0
158 -156 -151 0
151 156 158 0
-158 0
159 160 0
161 160 0
-159 -161 -160 0
-155 160 -162 0
155 -160 -162 0
162 -160 -155 0
155 160 162 0
-162 0
163 164 0
165 164 0
-163 -165 -164 0
-159 164 -166 0
159 -164 -166 0
166 -164 -159 0
159 164 166 0
-166 0
167 168 0
169 168 0
-167 -169 -168 0
-163 168 -170 0
163 -168 -170 0
170 -168 -163 0
163 168 170 0
-170 0
171 172 0
173 172 0
-171 -173 -172 0
-167 172 -174 0
167 -172 -174 0
174 -172 -167 0
167 172 174 0
-174 0
175 176 0
177 176 0
-175 -177 -176 0
-171 176 -178 0
171 -176 -178 0
178 -176 -171 0
171 176 178 0
-178 0
179 180 0
181 180 0
-179 -181 -180 0
-175 180 -182 0
175 -180 -182 0
182 -180 -175 0
175 180 182 0
-182 0
169 183 0
173 183 0
177 183 0
181 183 0
184 183 0
-185 0
-179 183 -186 0
179 -183 -186 0
186 -183 -179 0
179 183 186 0
-186 0
187 188 0
189 188 0
-187 -189 -188 0
-15 188 -190 0
15 -188 -190 0
190 -188 -15 0
15 188 190 0
-190 0
191 192 0
193 192 0
-191 -193 -192 0
-187 192 -194 0
187 -192 -194 0
194 -192 -187 0
187 192 194 0
-194 0
195 196 0
197 196 0
-195 -197 -196 0
-191 196 -198 0
191 -196 -198 0
198 -196 -191 0
191 196 198 0
-198 0
199 200 0
201 200 0
-199 -201 -200 0
-195 200 -202 0
195 -200 -202 0
202 -200 -195 0
195 200 202 0
-202 0
203 204 0
205 204 0
-203 -205 -204 0
-199 204 -206 0
199 -204 -206 0
206 -204 -199 0
199 204 206 0
-206 0
193 207 0
197 207 0
201 207 0
205 207 0
208 207 0
-209 0
-203 207 -210 0
203 -207 -210 0
210 -207 -203 0
203 207 210 0
-210 0
211 212 0
213 212 0
-211 -213 -212 0
-16 212 -214 0
16 -212 -214 0
214 -212 -16 0
16 212 214 0
-214 0
215 216 0
217 216 0
-215 -217 -216 0
-211 216 -218 0
211 -216 -218 0
218 -216 -211 0
211 216 218 0
-218 0
219 220 0
221 220 0
-219 -221 -220 0
-215 220 -222 0
215 -220 -222 0
222 -220 -215 0
215 220 222 0
-222 0
223 224 0
225 224 0
-223 -225 -224 0
-219 224 -226 0
219 -224 -226 0
226 -224 -219 0
219 224 226 0
-226 0
227 228 0
229 228 0
-227 -229 -228 0
-223 228 -230 0
223 -228 -230 0
230 -228 -223 0
223 228 230 0
-230 0
231 232 0
233 232 0
-231 -233 -232 0
-227 232 -234 0
227 -232 -234 0
234 -232 -227 0
227 232 234 0
-234 0
235 236 0
237 236 0
-235 -237 -236 0
-231 236 -238 0
231 -236 -238 0
238 -236 -231 0
231 236 238 0
-238 0
239 240 0
241 240 0
-239 -241 -240 0
-235 240 -242 0
235 -240 -242 0
242 -240 -235 0
235 240 242 0
-242 0
243 244 0
245 244 0
-243 -245 -244 0
-239 244 -246 0
239 -244 -246 0
246 -244 -239 0
239 244 246 0
-246 0
247 248 0
249 248 0
-247 -249 -248 0
-243 248 -250 0
243 -248 -250 0
250 -248 -243 0
243 248 250 0
-250 0
251 252 0
253 252 0
-251 -253 -252 0
-247 252 -254 0
247 -252 -254 0
254 -252 -247 0
247 252 254 0
-254 0
241 255 0
245 255 0
249 255 0
253 255 0
237 255 0
256 255 0
-257 0
-251 255 -258 0
251 -255 -258 0
258 -255 -251 0
251 255 258 0
-258 0
259 260 0
261 260 0
-259 -261 -260 0
-17 260 -262 0
17 -260 -262 0
262 -260 -17 0
17 260 262 0
-262 0
263 264 0
265 264 0
-263 -265 -264 0
-259 264 -266 0
259 -264 -266 0
266 -264 -259 0
259 264 266 0
-266 0
267 268 0
269 268 0
-267 -269 -268 0
-263 268 -270 0
263 -268 -270 0
270 -268 -263 0
263 268 270 0
-270 0
271 272 0
273 272 0
-271 -273 -272 0
-267 272 -274 0
267 -272 -274 0
274 -272 -267 0
267 272 274 0
-274 0
275 276 0
277 276 0
-275 -277 -276 0
-271 276 -278 0
271 -276 -278 0
278 -276 -271 0
271 276 278 0
-278 0
279 280 0
281 280 0
-279 -281 -280 0
-275 280 -282 0
275 -280 -282 0
282 -280 -275 0
275 280 282 0
-282 0
281 283 0
284 283 0
-284 -281 -283 0
-279 283 -285 0
279 -283 -285 0
285 -283 -279 0
279 283 285 0
-285 0
286 287 0
288 287 0
-286 -288 -287 0
-18 287 -289 0
18 -287 -289 0
289 -287 -18 0
18 287 289 0
-289 0
290 291 0
292 291 0
-290 -292 -291 0
-286 291 -293 0
286 -291 -293 0
293 -291 -286 0
286 291 293 0
-293 0
294 295 0
296 295 0
-294 -296 -295 0
-290 295 -297 0
290 -295 -297 0
297 -295 -290 0
290 295 297 0
-297 0
298 299 0
300 299 0
-298 -300 -299 0
-294 299 -301 0
294 -299 -301 0
301 -299 -294 0
294 299 301 0
-301 0
302 303 0
304 303 0
-302 -304 -303 0
-298 303 -305 0
298 -303 -305 0
305 -303 -298 0
298 303 305 0
-305 0
306 307 0
308 307 0
-306 -308 -307 0
-302 307 -309 0
302 -307 -309 0
309 -307 -302 0
302 307 309 0
-309 0
310 311 0
312 311 0
-310 -312 -311 0
-306 311 -313 0
306 -311 -313 0
313 -311 -306 0
306 311 313 0
-313 0
314 315 0
316 315 0
-314 -316 -315 0
-310 315 -317 0
310 -315 -317 0
317 -315 -310 0
310 315 317 0
-317 0
318 319 0
320 319 0
-318 -320 -319 0
-314 319 -321 0
314 -319 -321 0
321 -319 -314 0
314 319 321 0
-321 0
322 323 0
324 323 0
-322 -324 -323 0
-318 323 -325 0
318 -323 -325 0
325 -323 -318 0
318 323 325 0
-325 0
326 327 0
328 327 0
-326 -328 -327 0
-322 327 -329 0
322 -327 -329 0
329 -327 -322 0
322 327 329 0
-329 0
312 330 0
316 330 0
324 330 0
320 330 0
328 330 0
331 330 0
-332 0
-326 330 -333 0
326 -330 -333 0
333 -330 -326 0
326 330 333 0
-333 0
334 335 0
336 335 0
-334 -336 -335 0
-19 335 -337 0
19 -335 -337 0
337 -335 -19 0
19 335 337 0
-337 0
338 339 0
340 339 0
-338 -340 -339 0
-334 339 -341 0
334 -339 -341 0
341 -339 -334 0
334 339 341 0
-341 0
342 343 0
344 343 0
-342 -344 -343 0
-338 343 -345 0
338 -343 -345 0
345 -343 -338 0
338 343 345 0
-345 0
346 347 0
348 347 0
-346 -348 -347 0
-342 347 -349 0
342 -347 -349 0
349 -347 -342 0
342 347 349 0
-349 0
350 351 0
352 351 0
-350 -352 -351 0
-346 351 -353 0
346 -351 -353 0
353 -351 -346 0
346 351 353 0
-353 0
354 355 0
356 355 0
-354 -356 -355 0
-350 355 -357 0
350 -355 -357 0
357 -355 -350 0
350 355 357 0
-357 0
358 359 0
360 359 0
-358 -360 -359 0
-354 359 -361 0
354 -359 -361 0
361 -359 -354 0
354 359 361 0
-361 0
352 362 0
356 362 0
360 362 0
363 362 0
-364 0
-358 362 -365 0
358 -362 -365 0
365 -362 -358 0
358 362 365 0
-365 0
366 367 0
368 367 0
-366 -368 -367 0
-20 367 -369 0
20 -367 -369 0
369 -367 -20 0
20 367 369 0
-369 0
370 371 0
372 371 0
-370 -372 -371 0
-366 371 -373 0
366 -371 -373 0
373 -371 -366 0
366 371 373 0
-373 0
374 375 0
376 375 0
-374 -376 -375 0
-370 375 -377 0
370 -375 -377 0
377 -375 -370 0
370 375 377 0
-377 0
378 379 0
380 379 0
-378 -380 -379 0
-374 379 -381 0
374 -379 -381 0
381 -379 -374 0
374 379 381 0
-381 0
382 383 0
384 383 0
-382 -384 -383 0
-378 383 -385 0
378 -383 -385 0
385 -383 -378 0
378 383 385 0
-385 0
386 387 0
388 387 0
-386 -388 -387 0
-382 387 -389 0
382 -387 -389 0
389 -387 -382 0
382 387 389 0
-389 0
390 391 0
392 391 0
-390 -392 -391 0
-386 391 -393 0
386 -391 -393 0
393 -391 -386 0
386 391 393 0
-393 0
394 395 0
396 395 0
-394 -396 -395 0
-390 395 -397 0
390 -395 -397 0
397 -395 -390 0
390 395 397 0
-397 0
384 398 0
388 398 0
392 398 0
396 398 0
399 398 0
-400 0
-394 398 -401 0
394 -398 -401 0
401 -398 -394 0
394 398 401 0
-401 0
21 -402 0
22 -402 0
23 -402 0
24 -402 0
25 -402 0
26 -402 0
27 -402 0
28 -402 0
29 -402 0
30 -402 0
-402 -33 0
37 -402 0
41 -402 0
45 -402 0
49 -402 0
-402 -53 0
57 -402 0
61 -402 0
-402 -64 0
69 -402 0
73 -402 0
-402 -77 0
-402 -81 0
-402 -85 0
-402 -89 0
93 -402 0
-402 -97 0
-402 -101 0
104 -402 0
109 -402 0
113 -402 0
-402 -117 0
121 -402 0
125 -402 0
129 -402 0
133 -402 0
137 -402 0
141 -402 0
-402 -145 0
-402 -148 0
-402 -153 0
-402 -157 0
161 -402 0
165 -402 0
169 -402 0
-402 -173 0
177 -402 0
181 -402 0
-402 -184 0
-402 -189 0
-402 -193 0
-402 -197 0
201 -402 0
205 -402 0
208 -402 0
213 -402 0
-402 -217 0
221 -402 0
-402 -225 0
229 -402 0
-402 -233 0
237 -402 0
-402 -241 0
-402 -245 0
-402 -249 0
-402 -253 0
256 -402 0
-402 -261 0
-402 -265 0
-402 -269 0
273 -402 0
277 -402 0
281 -402 0
-402 -284 0
-402 -288 0
-402 -292 0
296 -402 0
-402 -300 0
-402 -304 0
-402 -308 0
-402 -312 0
-402 -316 0
320 -402 0
-402 -324 0
328 -402 0
331 -402 0
336 -402 0
340 -402 0
344 -402 0
-402 -348 0
-402 -352 0
-402 -356 0
360 -402 0
363 -402 0
-402 -368 0
-402 -372 0
376 -402 0
380 -402 0
384 -402 0
-402 -388 0
392 -402 0
396 -402 0
-402 -399 0
402 0
-403 0
-404 0
-405 0
-406 0
-407 0
-408 0
-409 0
-410 0
